
# PYTHONPATH must include directory above plugin directory.
#     Define either externally or here, then import plugin.
sys.path.insert(0, './..')
import myscf

molecule {
O
H 1 R
H 1 R 2 A

R = .9
A = 104.5
symmetry c1
}

set {
  scf_type df
  basis sto-3g
}

set myscf {
  print 1
}

energy('myscf')

myscf.exampleFN()
